
630.0
720.0
840.0
630.0
630.0
630.0
630.0
630.0
930.0
660.0
690.0
630.0
630.0
630.0
630.0
990.0
630.0
990.0
630.0
630.0
630.0
780.0
630.0
690.0
630.0
630.0
630.0
630.0
630.0
630.0
630.0
630.0
630.0
630.0
630.0
630.0
630.0
630.0
630.0
630.0
900.0
630.0
1050.0
630.0
630.0
1230.0
630.0
630.0
630.0
630.0
630.0
630.0
630.0
630.0
1110.0
630.0
1200.0
630.0
630.0
630.0
630.0
630.0
630.0
900.0
630.0
630.0
630.0
630.0
630.0
630.0
630.0
630.0
630.0
630.0
630.0
780.0
630.0
630.0
630.0
630.0